0 141 134 0 0 0 0 0 0 0 0 0 0 0 0
141 0 0 0 0 0 0 0 0 0 0 0 0 0 0
134 0 0 24 0 0 0 0 0 0 0 0 0 0 0
0 0 24 0 24 0 0 0 0 0 0 0 0 0 0
0 0 0 24 0 0 0 0 114 0 0 0 0 0 0
0 0 0 0 0 0 43 90 0 0 0 0 0 0 0
0 0 0 0 0 43 0 0 0 0 0 0 0 0 0
0 0 0 0 0 90 0 0 70 0 0 0 0 0 0
0 0 0 0 114 0 0 70 0 0 0 0 0 0 134
0 0 0 0 0 0 0 0 0 0 36 0 0 0 0
0 0 0 0 0 0 0 0 0 36 0 33 0 0 0
0 0 0 0 0 0 0 0 0 0 33 0 26 0 0
0 0 0 0 0 0 0 0 0 0 0 26 0 48 0
0 0 0 0 0 0 0 0 0 0 0 0 48 0 30
0 0 0 0 0 0 0 0 134 0 0 0 0 30 0